param n := 15;
param p := 5;

param	XX := 
		1	6
		2	14
		3	15
		4	11
		5	7
		6	12
		7	2
		8	8
		9	11
		10	13
		11	2
		12	1
		13	11
		14	5
		15	6;

param	YY := 
		1	13
		2	10
		3	15
		4	3
		5	4
		6	11
		7	12
		8	8
		9	13
		10	6
		11	7
		12	10
		13	2
		14	14
		15	4;